90 4005
1 2 135
1 3 264
1 4 72
1 5 179
1 6 23
1 7 59
1 8 208
1 9 263
1 10 71
1 11 173
1 12 113
1 13 50
1 14 218
1 15 65
1 16 87
1 17 72
1 18 169
1 19 233
1 20 53
1 21 48
1 22 73
1 23 220
1 24 66
1 25 238
1 26 223
1 27 209
1 28 4
1 29 163
1 30 101
1 31 137
1 32 214
1 33 79
1 34 161
1 35 21
1 36 125
1 37 249
1 38 170
1 39 205
1 40 195
1 41 213
1 42 86
1 43 228
1 44 236
1 45 90
1 46 225
1 47 52
1 48 156
1 49 2
1 50 144
1 51 27
1 52 144
1 53 184
1 54 48
1 55 207
1 56 184
1 57 89
1 58 154
1 59 159
1 60 134
1 61 134
1 62 218
1 63 153
1 64 149
1 65 178
1 66 114
1 67 216
1 68 268
1 69 181
1 70 56
1 71 28
1 72 84
1 73 230
1 74 151
1 75 155
1 76 212
1 77 27
1 78 205
1 79 41
1 80 72
1 81 95
1 82 30
1 83 221
1 84 225
1 85 103
1 86 80
1 87 177
1 88 171
1 89 162
1 90 263
2 3 200
2 4 216
2 5 250
2 6 188
2 7 136
2 8 214
2 9 53
2 10 93
2 11 226
2 12 235
2 13 185
2 14 186
2 15 247
2 16 212
2 17 136
2 18 162
2 19 142
2 20 50
2 21 161
2 22 267
2 23 44
2 24 195
2 25 152
2 26 116
2 27 198
2 28 123
2 29 201
2 30 91
2 31 238
2 32 263
2 33 198
2 34 224
2 35 234
2 36 167
2 37 88
2 38 262
2 39 198
2 40 44
2 41 106
2 42 99
2 43 210
2 44 59
2 45 240
2 46 37
2 47 150
2 48 18
2 49 44
2 50 187
2 51 215
2 52 218
2 53 37
2 54 38
2 55 156
2 56 101
2 57 240
2 58 267
2 59 231
2 60 233
2 61 116
2 62 31
2 63 229
2 64 67
2 65 111
2 66 97
2 67 189
2 68 98
2 69 234
2 70 46
2 71 194
2 72 207
2 73 164
2 74 246
2 75 257
2 76 94
2 77 109
2 78 77
2 79 250
2 80 66
2 81 244
2 82 113
2 83 195
2 84 199
2 85 51
2 86 50
2 87 82
2 88 111
2 89 234
2 90 199
3 4 90
3 5 134
3 6 46
3 7 140
3 8 122
3 9 89
3 10 26
3 11 156
3 12 161
3 13 61
3 14 54
3 15 247
3 16 22
3 17 193
3 18 265
3 19 151
3 20 186
3 21 175
3 22 83
3 23 3
3 24 86
3 25 78
3 26 212
3 27 184
3 28 0
3 29 238
3 30 209
3 31 8
3 32 145
3 33 235
3 34 16
3 35 9
3 36 73
3 37 64
3 38 89
3 39 263
3 40 257
3 41 42
3 42 212
3 43 90
3 44 213
3 45 49
3 46 163
3 47 227
3 48 117
3 49 45
3 50 87
3 51 164
3 52 149
3 53 141
3 54 234
3 55 73
3 56 42
3 57 73
3 58 232
3 59 153
3 60 78
3 61 18
3 62 58
3 63 138
3 64 223
3 65 35
3 66 11
3 67 89
3 68 64
3 69 140
3 70 140
3 71 54
3 72 122
3 73 118
3 74 3
3 75 59
3 76 191
3 77 193
3 78 134
3 79 74
3 80 190
3 81 183
3 82 19
3 83 148
3 84 98
3 85 140
3 86 54
3 87 191
3 88 189
3 89 190
3 90 53
4 5 183
4 6 88
4 7 66
4 8 169
4 9 135
4 10 144
4 11 52
4 12 219
4 13 14
4 14 254
4 15 191
4 16 27
4 17 111
4 18 60
4 19 268
4 20 9
4 21 73
4 22 73
4 23 138
4 24 163
4 25 83
4 26 225
4 27 62
4 28 50
4 29 41
4 30 106
4 31 243
4 32 20
4 33 247
4 34 193
4 35 20
4 36 140
4 37 176
4 38 73
4 39 96
4 40 23
4 41 219
4 42 78
4 43 34
4 44 209
4 45 242
4 46 218
4 47 258
4 48 62
4 49 64
4 50 112
4 51 63
4 52 125
4 53 40
4 54 48
4 55 180
4 56 148
4 57 165
4 58 14
4 59 73
4 60 175
4 61 108
4 62 66
4 63 104
4 64 56
4 65 104
4 66 248
4 67 248
4 68 105
4 69 229
4 70 104
4 71 227
4 72 203
4 73 109
4 74 117
4 75 127
4 76 179
4 77 44
4 78 0
4 79 45
4 80 78
4 81 144
4 82 207
4 83 262
4 84 112
4 85 169
4 86 10
4 87 13
4 88 86
4 89 213
4 90 132
5 6 222
5 7 53
5 8 91
5 9 127
5 10 11
5 11 96
5 12 118
5 13 227
5 14 71
5 15 156
5 16 171
5 17 231
5 18 108
5 19 58
5 20 103
5 21 101
5 22 67
5 23 50
5 24 130
5 25 224
5 26 198
5 27 77
5 28 55
5 29 151
5 30 6
5 31 180
5 32 3
5 33 201
5 34 243
5 35 32
5 36 180
5 37 155
5 38 9
5 39 197
5 40 169
5 41 216
5 42 24
5 43 118
5 44 122
5 45 28
5 46 57
5 47 126
5 48 85
5 49 216
5 50 251
5 51 37
5 52 18
5 53 17
5 54 54
5 55 200
5 56 159
5 57 180
5 58 218
5 59 165
5 60 153
5 61 98
5 62 186
5 63 178
5 64 216
5 65 6
5 66 87
5 67 61
5 68 83
5 69 225
5 70 63
5 71 238
5 72 97
5 73 210
5 74 0
5 75 222
5 76 10
5 77 136
5 78 142
5 79 182
5 80 200
5 81 148
5 82 81
5 83 52
5 84 73
5 85 144
5 86 117
5 87 114
5 88 257
5 89 65
5 90 141
6 7 36
6 8 232
6 9 88
6 10 56
6 11 154
6 12 175
6 13 202
6 14 169
6 15 31
6 16 83
6 17 225
6 18 140
6 19 222
6 20 257
6 21 233
6 22 137
6 23 203
6 24 191
6 25 233
6 26 36
6 27 224
6 28 156
6 29 107
6 30 13
6 31 94
6 32 89
6 33 123
6 34 112
6 35 214
6 36 269
6 37 78
6 38 111
6 39 83
6 40 133
6 41 248
6 42 127
6 43 164
6 44 108
6 45 12
6 46 78
6 47 106
6 48 252
6 49 125
6 50 216
6 51 80
6 52 12
6 53 18
6 54 192
6 55 82
6 56 63
6 57 23
6 58 0
6 59 220
6 60 41
6 61 260
6 62 66
6 63 246
6 64 78
6 65 138
6 66 191
6 67 248
6 68 242
6 69 265
6 70 94
6 71 197
6 72 187
6 73 101
6 74 244
6 75 98
6 76 64
6 77 205
6 78 171
6 79 13
6 80 168
6 81 45
6 82 188
6 83 153
6 84 242
6 85 188
6 86 61
6 87 120
6 88 120
6 89 57
6 90 128
7 8 221
7 9 8
7 10 193
7 11 207
7 12 89
7 13 71
7 14 214
7 15 156
7 16 87
7 17 165
7 18 57
7 19 126
7 20 137
7 21 94
7 22 82
7 23 226
7 24 59
7 25 175
7 26 143
7 27 94
7 28 121
7 29 204
7 30 69
7 31 45
7 32 203
7 33 147
7 34 26
7 35 185
7 36 118
7 37 259
7 38 56
7 39 87
7 40 160
7 41 171
7 42 234
7 43 194
7 44 8
7 45 24
7 46 29
7 47 224
7 48 189
7 49 60
7 50 17
7 51 176
7 52 247
7 53 195
7 54 234
7 55 204
7 56 203
7 57 249
7 58 54
7 59 18
7 60 200
7 61 31
7 62 112
7 63 223
7 64 230
7 65 204
7 66 48
7 67 169
7 68 77
7 69 180
7 70 0
7 71 84
7 72 113
7 73 119
7 74 202
7 75 248
7 76 35
7 77 250
7 78 211
7 79 168
7 80 171
7 81 105
7 82 53
7 83 268
7 84 97
7 85 180
7 86 177
7 87 31
7 88 63
7 89 184
7 90 223
8 9 21
8 10 188
8 11 40
8 12 172
8 13 82
8 14 40
8 15 195
8 16 177
8 17 5
8 18 269
8 19 95
8 20 155
8 21 72
8 22 152
8 23 83
8 24 19
8 25 169
8 26 253
8 27 102
8 28 240
8 29 159
8 30 23
8 31 262
8 32 180
8 33 39
8 34 42
8 35 134
8 36 168
8 37 153
8 38 208
8 39 15
8 40 161
8 41 234
8 42 53
8 43 47
8 44 230
8 45 144
8 46 32
8 47 137
8 48 72
8 49 229
8 50 8
8 51 31
8 52 64
8 53 255
8 54 254
8 55 116
8 56 182
8 57 86
8 58 111
8 59 92
8 60 153
8 61 56
8 62 204
8 63 200
8 64 171
8 65 9
8 66 162
8 67 155
8 68 46
8 69 229
8 70 42
8 71 38
8 72 228
8 73 234
8 74 167
8 75 239
8 76 50
8 77 39
8 78 129
8 79 252
8 80 156
8 81 208
8 82 8
8 83 32
8 84 8
8 85 176
8 86 9
8 87 210
8 88 124
8 89 97
8 90 147
9 10 178
9 11 258
9 12 178
9 13 137
9 14 267
9 15 30
9 16 101
9 17 256
9 18 154
9 19 2
9 20 219
9 21 128
9 22 167
9 23 267
9 24 180
9 25 239
9 26 58
9 27 213
9 28 132
9 29 192
9 30 76
9 31 168
9 32 238
9 33 157
9 34 238
9 35 212
9 36 79
9 37 22
9 38 262
9 39 8
9 40 233
9 41 250
9 42 260
9 43 82
9 44 248
9 45 96
9 46 105
9 47 108
9 48 127
9 49 88
9 50 118
9 51 225
9 52 256
9 53 200
9 54 261
9 55 45
9 56 146
9 57 194
9 58 194
9 59 106
9 60 180
9 61 218
9 62 94
9 63 260
9 64 150
9 65 16
9 66 37
9 67 239
9 68 143
9 69 122
9 70 99
9 71 128
9 72 4
9 73 266
9 74 41
9 75 136
9 76 246
9 77 139
9 78 78
9 79 74
9 80 222
9 81 232
9 82 6
9 83 234
9 84 223
9 85 146
9 86 176
9 87 92
9 88 178
9 89 191
9 90 58
10 11 29
10 12 24
10 13 189
10 14 69
10 15 4
10 16 116
10 17 248
10 18 72
10 19 190
10 20 63
10 21 182
10 22 225
10 23 134
10 24 145
10 25 227
10 26 248
10 27 31
10 28 244
10 29 43
10 30 138
10 31 148
10 32 18
10 33 89
10 34 28
10 35 36
10 36 227
10 37 153
10 38 221
10 39 1
10 40 237
10 41 132
10 42 41
10 43 55
10 44 235
10 45 209
10 46 30
10 47 245
10 48 67
10 49 43
10 50 85
10 51 1
10 52 118
10 53 100
10 54 99
10 55 173
10 56 142
10 57 171
10 58 24
10 59 214
10 60 219
10 61 101
10 62 213
10 63 13
10 64 239
10 65 67
10 66 79
10 67 144
10 68 217
10 69 165
10 70 223
10 71 217
10 72 203
10 73 95
10 74 247
10 75 43
10 76 246
10 77 215
10 78 175
10 79 90
10 80 58
10 81 52
10 82 49
10 83 174
10 84 179
10 85 52
10 86 14
10 87 147
10 88 52
10 89 23
10 90 186
11 12 137
11 13 220
11 14 140
11 15 212
11 16 178
11 17 123
11 18 21
11 19 267
11 20 269
11 21 92
11 22 48
11 23 170
11 24 75
11 25 60
11 26 191
11 27 140
11 28 118
11 29 37
11 30 187
11 31 62
11 32 232
11 33 150
11 34 115
11 35 136
11 36 16
11 37 204
11 38 44
11 39 61
11 40 146
11 41 151
11 42 98
11 43 89
11 44 195
11 45 179
11 46 101
11 47 166
11 48 202
11 49 204
11 50 205
11 51 16
11 52 99
11 53 130
11 54 28
11 55 94
11 56 186
11 57 230
11 58 260
11 59 170
11 60 82
11 61 137
11 62 178
11 63 78
11 64 62
11 65 157
11 66 73
11 67 97
11 68 233
11 69 184
11 70 22
11 71 139
11 72 185
11 73 110
11 74 214
11 75 220
11 76 33
11 77 169
11 78 166
11 79 145
11 80 201
11 81 43
11 82 240
11 83 216
11 84 131
11 85 242
11 86 56
11 87 81
11 88 29
11 89 2
11 90 172
12 13 212
12 14 132
12 15 126
12 16 29
12 17 253
12 18 33
12 19 166
12 20 42
12 21 65
12 22 214
12 23 152
12 24 183
12 25 254
12 26 107
12 27 178
12 28 90
12 29 127
12 30 179
12 31 32
12 32 12
12 33 124
12 34 25
12 35 253
12 36 108
12 37 50
12 38 182
12 39 180
12 40 236
12 41 53
12 42 106
12 43 157
12 44 176
12 45 101
12 46 235
12 47 43
12 48 49
12 49 172
12 50 131
12 51 149
12 52 249
12 53 223
12 54 72
12 55 256
12 56 259
12 57 167
12 58 116
12 59 130
12 60 214
12 61 180
12 62 36
12 63 153
12 64 65
12 65 15
12 66 20
12 67 73
12 68 186
12 69 259
12 70 6
12 71 154
12 72 28
12 73 233
12 74 174
12 75 10
12 76 222
12 77 263
12 78 192
12 79 229
12 80 223
12 81 12
12 82 248
12 83 186
12 84 262
12 85 172
12 86 65
12 87 69
12 88 260
12 89 41
12 90 64
13 14 6
13 15 45
13 16 124
13 17 36
13 18 131
13 19 59
13 20 123
13 21 203
13 22 209
13 23 121
13 24 199
13 25 17
13 26 84
13 27 123
13 28 24
13 29 202
13 30 31
13 31 162
13 32 60
13 33 102
13 34 208
13 35 201
13 36 237
13 37 158
13 38 1
13 39 15
13 40 78
13 41 162
13 42 149
13 43 154
13 44 56
13 45 109
13 46 10
13 47 42
13 48 182
13 49 42
13 50 235
13 51 267
13 52 212
13 53 168
13 54 95
13 55 11
13 56 74
13 57 266
13 58 27
13 59 138
13 60 231
13 61 67
13 62 87
13 63 27
13 64 255
13 65 250
13 66 105
13 67 182
13 68 134
13 69 167
13 70 226
13 71 88
13 72 119
13 73 108
13 74 30
13 75 220
13 76 111
13 77 125
13 78 64
13 79 29
13 80 255
13 81 234
13 82 114
13 83 51
13 84 245
13 85 231
13 86 93
13 87 91
13 88 2
13 89 39
13 90 71
14 15 142
14 16 148
14 17 129
14 18 0
14 19 41
14 20 166
14 21 219
14 22 162
14 23 164
14 24 237
14 25 185
14 26 225
14 27 19
14 28 86
14 29 267
14 30 65
14 31 82
14 32 171
14 33 228
14 34 169
14 35 92
14 36 42
14 37 148
14 38 127
14 39 145
14 40 32
14 41 50
14 42 263
14 43 187
14 44 188
14 45 194
14 46 16
14 47 193
14 48 167
14 49 54
14 50 250
14 51 91
14 52 57
14 53 74
14 54 42
14 55 209
14 56 212
14 57 17
14 58 216
14 59 105
14 60 38
14 61 244
14 62 194
14 63 207
14 64 219
14 65 134
14 66 191
14 67 70
14 68 120
14 69 134
14 70 119
14 71 241
14 72 165
14 73 183
14 74 113
14 75 41
14 76 263
14 77 90
14 78 184
14 79 237
14 80 195
14 81 22
14 82 5
14 83 33
14 84 177
14 85 101
14 86 47
14 87 142
14 88 58
14 89 191
14 90 167
15 16 108
15 17 254
15 18 75
15 19 187
15 20 219
15 21 128
15 22 19
15 23 234
15 24 245
15 25 69
15 26 149
15 27 235
15 28 90
15 29 14
15 30 180
15 31 33
15 32 186
15 33 214
15 34 140
15 35 64
15 36 117
15 37 161
15 38 224
15 39 92
15 40 133
15 41 169
15 42 185
15 43 52
15 44 5
15 45 201
15 46 148
15 47 234
15 48 53
15 49 84
15 50 200
15 51 191
15 52 163
15 53 140
15 54 104
15 55 265
15 56 156
15 57 2
15 58 179
15 59 153
15 60 106
15 61 130
15 62 115
15 63 149
15 64 207
15 65 169
15 66 239
15 67 43
15 68 261
15 69 8
15 70 266
15 71 232
15 72 135
15 73 73
15 74 127
15 75 89
15 76 16
15 77 36
15 78 45
15 79 250
15 80 156
15 81 147
15 82 197
15 83 76
15 84 233
15 85 114
15 86 48
15 87 208
15 88 78
15 89 102
15 90 205
16 17 149
16 18 16
16 19 30
16 20 259
16 21 63
16 22 5
16 23 23
16 24 118
16 25 128
16 26 169
16 27 8
16 28 90
16 29 40
16 30 248
16 31 91
16 32 215
16 33 13
16 34 233
16 35 135
16 36 226
16 37 210
16 38 173
16 39 89
16 40 230
16 41 92
16 42 111
16 43 88
16 44 101
16 45 179
16 46 221
16 47 57
16 48 207
16 49 120
16 50 9
16 51 223
16 52 96
16 53 107
16 54 29
16 55 190
16 56 235
16 57 68
16 58 237
16 59 67
16 60 136
16 61 42
16 62 224
16 63 181
16 64 114
16 65 187
16 66 149
16 67 223
16 68 4
16 69 49
16 70 123
16 71 162
16 72 117
16 73 133
16 74 181
16 75 171
16 76 216
16 77 214
16 78 169
16 79 205
16 80 106
16 81 268
16 82 112
16 83 101
16 84 110
16 85 269
16 86 239
16 87 207
16 88 216
16 89 69
16 90 51
17 18 229
17 19 55
17 20 60
17 21 10
17 22 56
17 23 22
17 24 129
17 25 251
17 26 214
17 27 41
17 28 269
17 29 51
17 30 134
17 31 197
17 32 267
17 33 41
17 34 235
17 35 230
17 36 66
17 37 70
17 38 107
17 39 140
17 40 106
17 41 134
17 42 247
17 43 204
17 44 126
17 45 191
17 46 239
17 47 47
17 48 188
17 49 182
17 50 31
17 51 21
17 52 140
17 53 31
17 54 220
17 55 218
17 56 197
17 57 115
17 58 206
17 59 228
17 60 73
17 61 157
17 62 134
17 63 211
17 64 210
17 65 176
17 66 69
17 67 10
17 68 194
17 69 152
17 70 179
17 71 73
17 72 259
17 73 65
17 74 148
17 75 154
17 76 86
17 77 171
17 78 205
17 79 146
17 80 247
17 81 155
17 82 213
17 83 176
17 84 225
17 85 59
17 86 34
17 87 17
17 88 143
17 89 239
17 90 70
18 19 162
18 20 257
18 21 28
18 22 45
18 23 177
18 24 163
18 25 201
18 26 252
18 27 73
18 28 232
18 29 41
18 30 259
18 31 7
18 32 39
18 33 223
18 34 101
18 35 109
18 36 28
18 37 163
18 38 22
18 39 53
18 40 219
18 41 1
18 42 69
18 43 72
18 44 91
18 45 57
18 46 203
18 47 226
18 48 217
18 49 32
18 50 55
18 51 208
18 52 230
18 53 29
18 54 197
18 55 144
18 56 96
18 57 147
18 58 205
18 59 191
18 60 115
18 61 269
18 62 250
18 63 80
18 64 66
18 65 123
18 66 5
18 67 78
18 68 161
18 69 3
18 70 239
18 71 235
18 72 32
18 73 210
18 74 88
18 75 57
18 76 242
18 77 120
18 78 224
18 79 166
18 80 16
18 81 261
18 82 1
18 83 68
18 84 133
18 85 243
18 86 78
18 87 53
18 88 120
18 89 56
18 90 123
19 20 43
19 21 3
19 22 37
19 23 173
19 24 215
19 25 56
19 26 199
19 27 235
19 28 100
19 29 159
19 30 17
19 31 144
19 32 167
19 33 175
19 34 200
19 35 239
19 36 80
19 37 210
19 38 59
19 39 79
19 40 5
19 41 219
19 42 104
19 43 117
19 44 193
19 45 67
19 46 152
19 47 140
19 48 0
19 49 209
19 50 80
19 51 79
19 52 54
19 53 10
19 54 215
19 55 215
19 56 216
19 57 28
19 58 90
19 59 213
19 60 120
19 61 97
19 62 12
19 63 243
19 64 177
19 65 239
19 66 29
19 67 252
19 68 157
19 69 170
19 70 82
19 71 77
19 72 78
19 73 234
19 74 254
19 75 18
19 76 66
19 77 107
19 78 207
19 79 254
19 80 115
19 81 91
19 82 212
19 83 135
19 84 20
19 85 171
19 86 30
19 87 74
19 88 73
19 89 107
19 90 148
20 21 258
20 22 245
20 23 69
20 24 195
20 25 152
20 26 174
20 27 17
20 28 111
20 29 244
20 30 168
20 31 115
20 32 65
20 33 88
20 34 80
20 35 38
20 36 213
20 37 15
20 38 45
20 39 94
20 40 198
20 41 155
20 42 173
20 43 72
20 44 29
20 45 236
20 46 248
20 47 195
20 48 213
20 49 55
20 50 28
20 51 150
20 52 23
20 53 259
20 54 6
20 55 141
20 56 63
20 57 253
20 58 142
20 59 85
20 60 14
20 61 84
20 62 224
20 63 85
20 64 266
20 65 141
20 66 246
20 67 119
20 68 145
20 69 212
20 70 136
20 71 159
20 72 152
20 73 91
20 74 10
20 75 215
20 76 260
20 77 246
20 78 145
20 79 102
20 80 254
20 81 197
20 82 41
20 83 129
20 84 100
20 85 251
20 86 182
20 87 134
20 88 1
20 89 84
20 90 54
21 22 140
21 23 32
21 24 94
21 25 88
21 26 141
21 27 55
21 28 170
21 29 225
21 30 122
21 31 152
21 32 244
21 33 25
21 34 127
21 35 1
21 36 262
21 37 86
21 38 176
21 39 54
21 40 96
21 41 145
21 42 219
21 43 5
21 44 110
21 45 226
21 46 34
21 47 115
21 48 12
21 49 112
21 50 170
21 51 250
21 52 140
21 53 108
21 54 6
21 55 98
21 56 150
21 57 68
21 58 239
21 59 77
21 60 181
21 61 238
21 62 202
21 63 134
21 64 52
21 65 256
21 66 127
21 67 59
21 68 68
21 69 84
21 70 175
21 71 7
21 72 217
21 73 185
21 74 60
21 75 244
21 76 184
21 77 177
21 78 269
21 79 171
21 80 254
21 81 13
21 82 90
21 83 191
21 84 256
21 85 228
21 86 254
21 87 178
21 88 169
21 89 80
21 90 243
22 23 76
22 24 101
22 25 247
22 26 96
22 27 97
22 28 36
22 29 91
22 30 9
22 31 217
22 32 1
22 33 212
22 34 184
22 35 44
22 36 116
22 37 97
22 38 168
22 39 134
22 40 246
22 41 30
22 42 89
22 43 37
22 44 147
22 45 150
22 46 143
22 47 196
22 48 82
22 49 22
22 50 238
22 51 244
22 52 84
22 53 163
22 54 147
22 55 128
22 56 262
22 57 216
22 58 235
22 59 108
22 60 42
22 61 106
22 62 195
22 63 77
22 64 198
22 65 134
22 66 63
22 67 11
22 68 156
22 69 91
22 70 115
22 71 151
22 72 240
22 73 58
22 74 140
22 75 46
22 76 39
22 77 29
22 78 112
22 79 16
22 80 14
22 81 56
22 82 173
22 83 84
22 84 208
22 85 26
22 86 203
22 87 182
22 88 9
22 89 13
22 90 149
23 24 49
23 25 197
23 26 229
23 27 269
23 28 113
23 29 21
23 30 2
23 31 129
23 32 109
23 33 158
23 34 64
23 35 114
23 36 32
23 37 96
23 38 198
23 39 102
23 40 31
23 41 7
23 42 229
23 43 102
23 44 152
23 45 86
23 46 186
23 47 41
23 48 248
23 49 182
23 50 57
23 51 71
23 52 38
23 53 193
23 54 202
23 55 20
23 56 240
23 57 252
23 58 16
23 59 164
23 60 203
23 61 229
23 62 31
23 63 226
23 64 117
23 65 129
23 66 261
23 67 26
23 68 229
23 69 258
23 70 39
23 71 234
23 72 93
23 73 76
23 74 255
23 75 182
23 76 102
23 77 163
23 78 220
23 79 152
23 80 119
23 81 259
23 82 86
23 83 177
23 84 156
23 85 71
23 86 185
23 87 7
23 88 98
23 89 133
23 90 171
24 25 100
24 26 56
24 27 197
24 28 28
24 29 132
24 30 2
24 31 238
24 32 168
24 33 160
24 34 12
24 35 256
24 36 196
24 37 35
24 38 67
24 39 136
24 40 157
24 41 224
24 42 25
24 43 33
24 44 94
24 45 60
24 46 115
24 47 94
24 48 105
24 49 177
24 50 167
24 51 159
24 52 104
24 53 121
24 54 182
24 55 244
24 56 4
24 57 255
24 58 160
24 59 130
24 60 102
24 61 116
24 62 118
24 63 265
24 64 261
24 65 32
24 66 87
24 67 151
24 68 71
24 69 81
24 70 126
24 71 181
24 72 51
24 73 258
24 74 246
24 75 99
24 76 160
24 77 162
24 78 209
24 79 236
24 80 4
24 81 166
24 82 70
24 83 47
24 84 105
24 85 143
24 86 39
24 87 258
24 88 232
24 89 192
24 90 264
25 26 134
25 27 166
25 28 85
25 29 163
25 30 220
25 31 96
25 32 3
25 33 71
25 34 74
25 35 119
25 36 233
25 37 163
25 38 195
25 39 150
25 40 96
25 41 7
25 42 68
25 43 43
25 44 185
25 45 221
25 46 175
25 47 94
25 48 49
25 49 210
25 50 268
25 51 82
25 52 168
25 53 71
25 54 245
25 55 129
25 56 225
25 57 224
25 58 259
25 59 173
25 60 14
25 61 182
25 62 192
25 63 75
25 64 67
25 65 239
25 66 175
25 67 31
25 68 217
25 69 195
25 70 16
25 71 76
25 72 50
25 73 209
25 74 202
25 75 143
25 76 202
25 77 15
25 78 173
25 79 168
25 80 64
25 81 123
25 82 36
25 83 101
25 84 32
25 85 21
25 86 150
25 87 169
25 88 124
25 89 164
25 90 238
26 27 229
26 28 46
26 29 20
26 30 141
26 31 129
26 32 252
26 33 141
26 34 52
26 35 229
26 36 239
26 37 17
26 38 241
26 39 234
26 40 123
26 41 84
26 42 37
26 43 231
26 44 64
26 45 163
26 46 76
26 47 3
26 48 140
26 49 77
26 50 13
26 51 4
26 52 84
26 53 250
26 54 134
26 55 155
26 56 262
26 57 47
26 58 23
26 59 33
26 60 196
26 61 38
26 62 66
26 63 99
26 64 168
26 65 103
26 66 183
26 67 168
26 68 110
26 69 256
26 70 120
26 71 73
26 72 131
26 73 210
26 74 8
26 75 152
26 76 93
26 77 73
26 78 118
26 79 195
26 80 73
26 81 175
26 82 167
26 83 3
26 84 160
26 85 260
26 86 177
26 87 202
26 88 246
26 89 259
26 90 228
27 28 19
27 29 266
27 30 57
27 31 147
27 32 74
27 33 239
27 34 111
27 35 100
27 36 109
27 37 104
27 38 85
27 39 267
27 40 245
27 41 106
27 42 194
27 43 135
27 44 128
27 45 267
27 46 126
27 47 68
27 48 78
27 49 134
27 50 243
27 51 17
27 52 65
27 53 48
27 54 55
27 55 74
27 56 25
27 57 257
27 58 206
27 59 9
27 60 165
27 61 136
27 62 101
27 63 14
27 64 234
27 65 22
27 66 8
27 67 181
27 68 193
27 69 71
27 70 48
27 71 159
27 72 134
27 73 165
27 74 47
27 75 191
27 76 153
27 77 16
27 78 20
27 79 177
27 80 88
27 81 114
27 82 232
27 83 122
27 84 47
27 85 153
27 86 92
27 87 238
27 88 84
27 89 241
27 90 227
28 29 212
28 30 144
28 31 190
28 32 215
28 33 86
28 34 108
28 35 184
28 36 0
28 37 265
28 38 236
28 39 262
28 40 60
28 41 75
28 42 41
28 43 31
28 44 95
28 45 40
28 46 20
28 47 180
28 48 217
28 49 182
28 50 100
28 51 179
28 52 33
28 53 167
28 54 142
28 55 211
28 56 118
28 57 1
28 58 37
28 59 134
28 60 41
28 61 104
28 62 23
28 63 126
28 64 58
28 65 6
28 66 235
28 67 97
28 68 154
28 69 204
28 70 45
28 71 236
28 72 67
28 73 119
28 74 25
28 75 157
28 76 185
28 77 98
28 78 13
28 79 153
28 80 134
28 81 165
28 82 207
28 83 31
28 84 55
28 85 102
28 86 266
28 87 13
28 88 48
28 89 32
28 90 143
29 30 235
29 31 86
29 32 137
29 33 221
29 34 232
29 35 79
29 36 103
29 37 162
29 38 72
29 39 158
29 40 192
29 41 204
29 42 107
29 43 193
29 44 268
29 45 194
29 46 85
29 47 227
29 48 238
29 49 103
29 50 103
29 51 269
29 52 222
29 53 86
29 54 169
29 55 137
29 56 188
29 57 221
29 58 108
29 59 245
29 60 173
29 61 166
29 62 161
29 63 155
29 64 225
29 65 99
29 66 29
29 67 128
29 68 260
29 69 77
29 70 181
29 71 222
29 72 186
29 73 218
29 74 188
29 75 146
29 76 195
29 77 3
29 78 134
29 79 263
29 80 83
29 81 169
29 82 240
29 83 163
29 84 59
29 85 176
29 86 80
29 87 198
29 88 225
29 89 165
29 90 237
30 31 57
30 32 164
30 33 82
30 34 251
30 35 179
30 36 77
30 37 71
30 38 67
30 39 76
30 40 266
30 41 52
30 42 93
30 43 200
30 44 175
30 45 232
30 46 141
30 47 142
30 48 96
30 49 231
30 50 12
30 51 77
30 52 234
30 53 62
30 54 258
30 55 164
30 56 117
30 57 266
30 58 125
30 59 211
30 60 231
30 61 258
30 62 188
30 63 63
30 64 208
30 65 212
30 66 165
30 67 108
30 68 45
30 69 186
30 70 124
30 71 202
30 72 160
30 73 239
30 74 82
30 75 250
30 76 160
30 77 143
30 78 223
30 79 96
30 80 145
30 81 91
30 82 109
30 83 63
30 84 196
30 85 64
30 86 135
30 87 0
30 88 44
30 89 18
30 90 104
31 32 44
31 33 32
31 34 30
31 35 23
31 36 226
31 37 91
31 38 217
31 39 124
31 40 192
31 41 130
31 42 52
31 43 43
31 44 78
31 45 29
31 46 1
31 47 238
31 48 164
31 49 12
31 50 245
31 51 31
31 52 8
31 53 223
31 54 116
31 55 103
31 56 123
31 57 170
31 58 33
31 59 111
31 60 156
31 61 135
31 62 36
31 63 207
31 64 223
31 65 153
31 66 83
31 67 219
31 68 269
31 69 211
31 70 200
31 71 184
31 72 120
31 73 53
31 74 254
31 75 215
31 76 65
31 77 48
31 78 112
31 79 116
31 80 133
31 81 205
31 82 21
31 83 15
31 84 49
31 85 57
31 86 264
31 87 167
31 88 74
31 89 205
31 90 45
32 33 264
32 34 169
32 35 41
32 36 21
32 37 162
32 38 115
32 39 244
32 40 269
32 41 237
32 42 83
32 43 2
32 44 24
32 45 138
32 46 37
32 47 251
32 48 83
32 49 265
32 50 183
32 51 72
32 52 118
32 53 56
32 54 200
32 55 176
32 56 135
32 57 179
32 58 123
32 59 211
32 60 19
32 61 237
32 62 44
32 63 254
32 64 32
32 65 205
32 66 186
32 67 137
32 68 147
32 69 55
32 70 110
32 71 3
32 72 58
32 73 130
32 74 103
32 75 104
32 76 148
32 77 168
32 78 104
32 79 95
32 80 42
32 81 104
32 82 261
32 83 2
32 84 134
32 85 146
32 86 129
32 87 75
32 88 56
32 89 85
32 90 104
33 34 203
33 35 147
33 36 75
33 37 37
33 38 39
33 39 67
33 40 67
33 41 0
33 42 264
33 43 202
33 44 159
33 45 169
33 46 264
33 47 225
33 48 169
33 49 201
33 50 121
33 51 88
33 52 127
33 53 119
33 54 186
33 55 241
33 56 103
33 57 91
33 58 89
33 59 245
33 60 177
33 61 135
33 62 197
33 63 49
33 64 155
33 65 202
33 66 41
33 67 180
33 68 125
33 69 149
33 70 220
33 71 195
33 72 16
33 73 24
33 74 59
33 75 31
33 76 78
33 77 184
33 78 36
33 79 120
33 80 53
33 81 35
33 82 54
33 83 234
33 84 128
33 85 39
33 86 37
33 87 219
33 88 169
33 89 33
33 90 90
34 35 21
34 36 11
34 37 186
34 38 248
34 39 69
34 40 161
34 41 0
34 42 3
34 43 203
34 44 33
34 45 35
34 46 231
34 47 227
34 48 115
34 49 86
34 50 179
34 51 33
34 52 18
34 53 216
34 54 81
34 55 119
34 56 197
34 57 173
34 58 0
34 59 151
34 60 151
34 61 3
34 62 65
34 63 36
34 64 54
34 65 215
34 66 58
34 67 100
34 68 61
34 69 119
34 70 248
34 71 169
34 72 96
34 73 213
34 74 47
34 75 225
34 76 108
34 77 161
34 78 226
34 79 104
34 80 115
34 81 218
34 82 259
34 83 48
34 84 261
34 85 226
34 86 240
34 87 165
34 88 101
34 89 242
34 90 211
35 36 203
35 37 0
35 38 262
35 39 25
35 40 111
35 41 74
35 42 144
35 43 191
35 44 262
35 45 247
35 46 179
35 47 159
35 48 206
35 49 107
35 50 126
35 51 220
35 52 252
35 53 98
35 54 141
35 55 191
35 56 121
35 57 160
35 58 265
35 59 76
35 60 178
35 61 207
35 62 26
35 63 201
35 64 61
35 65 44
35 66 163
35 67 14
35 68 34
35 69 190
35 70 161
35 71 124
35 72 28
35 73 44
35 74 215
35 75 262
35 76 48
35 77 211
35 78 179
35 79 11
35 80 0
35 81 150
35 82 228
35 83 87
35 84 180
35 85 237
35 86 23
35 87 84
35 88 244
35 89 126
35 90 254
36 37 171
36 38 120
36 39 120
36 40 215
36 41 105
36 42 162
36 43 88
36 44 15
36 45 84
36 46 212
36 47 132
36 48 90
36 49 60
36 50 78
36 51 76
36 52 181
36 53 152
36 54 200
36 55 232
36 56 124
36 57 44
36 58 64
36 59 103
36 60 6
36 61 226
36 62 222
36 63 37
36 64 258
36 65 267
36 66 130
36 67 46
36 68 92
36 69 135
36 70 55
36 71 241
36 72 77
36 73 66
36 74 0
36 75 1
36 76 234
36 77 102
36 78 211
36 79 83
36 80 83
36 81 174
36 82 186
36 83 30
36 84 52
36 85 12
36 86 29
36 87 75
36 88 252
36 89 51
36 90 177
37 38 115
37 39 168
37 40 160
37 41 130
37 42 7
37 43 105
37 44 45
37 45 263
37 46 231
37 47 16
37 48 252
37 49 123
37 50 262
37 51 160
37 52 122
37 53 17
37 54 193
37 55 98
37 56 85
37 57 113
37 58 197
37 59 100
37 60 2
37 61 207
37 62 51
37 63 79
37 64 147
37 65 4
37 66 115
37 67 4
37 68 222
37 69 184
37 70 257
37 71 59
37 72 11
37 73 75
37 74 148
37 75 48
37 76 40
37 77 47
37 78 25
37 79 268
37 80 269
37 81 41
37 82 149
37 83 160
37 84 267
37 85 178
37 86 174
37 87 68
37 88 228
37 89 269
37 90 74
38 39 146
38 40 52
38 41 186
38 42 122
38 43 262
38 44 223
38 45 185
38 46 211
38 47 72
38 48 257
38 49 53
38 50 155
38 51 20
38 52 78
38 53 217
38 54 201
38 55 264
38 56 186
38 57 200
38 58 63
38 59 142
38 60 11
38 61 140
38 62 128
38 63 236
38 64 181
38 65 113
38 66 183
38 67 67
38 68 138
38 69 231
38 70 259
38 71 254
38 72 2
38 73 107
38 74 153
38 75 90
38 76 30
38 77 184
38 78 160
38 79 107
38 80 49
38 81 151
38 82 132
38 83 14
38 84 259
38 85 231
38 86 202
38 87 14
38 88 7
38 89 154
38 90 268
39 40 251
39 41 130
39 42 209
39 43 17
39 44 99
39 45 147
39 46 164
39 47 13
39 48 268
39 49 11
39 50 188
39 51 171
39 52 106
39 53 259
39 54 147
39 55 144
39 56 58
39 57 163
39 58 258
39 59 190
39 60 208
39 61 53
39 62 160
39 63 204
39 64 119
39 65 109
39 66 8
39 67 47
39 68 122
39 69 202
39 70 63
39 71 227
39 72 157
39 73 71
39 74 28
39 75 267
39 76 156
39 77 160
39 78 192
39 79 19
39 80 1
39 81 56
39 82 57
39 83 65
39 84 120
39 85 66
39 86 93
39 87 212
39 88 120
39 89 242
39 90 248
40 41 11
40 42 86
40 43 5
40 44 182
40 45 142
40 46 72
40 47 193
40 48 208
40 49 94
40 50 143
40 51 183
40 52 98
40 53 9
40 54 197
40 55 39
40 56 43
40 57 79
40 58 135
40 59 89
40 60 14
40 61 28
40 62 105
40 63 216
40 64 63
40 65 18
40 66 149
40 67 31
40 68 37
40 69 42
40 70 243
40 71 106
40 72 182
40 73 92
40 74 50
40 75 26
40 76 106
40 77 243
40 78 13
40 79 103
40 80 44
40 81 236
40 82 16
40 83 19
40 84 31
40 85 183
40 86 166
40 87 41
40 88 47
40 89 14
40 90 196
41 42 157
41 43 88
41 44 72
41 45 211
41 46 150
41 47 65
41 48 157
41 49 134
41 50 100
41 51 155
41 52 3
41 53 59
41 54 240
41 55 90
41 56 57
41 57 129
41 58 158
41 59 178
41 60 93
41 61 210
41 62 68
41 63 268
41 64 190
41 65 218
41 66 151
41 67 74
41 68 6
41 69 93
41 70 103
41 71 41
41 72 267
41 73 265
41 74 167
41 75 73
41 76 93
41 77 93
41 78 57
41 79 80
41 80 12
41 81 6
41 82 124
41 83 207
41 84 178
41 85 73
41 86 109
41 87 43
41 88 89
41 89 218
41 90 133
42 43 36
42 44 206
42 45 183
42 46 112
42 47 11
42 48 218
42 49 240
42 50 132
42 51 198
42 52 101
42 53 262
42 54 114
42 55 236
42 56 55
42 57 48
42 58 34
42 59 16
42 60 64
42 61 103
42 62 187
42 63 237
42 64 182
42 65 82
42 66 207
42 67 42
42 68 136
42 69 173
42 70 260
42 71 136
42 72 98
42 73 58
42 74 158
42 75 12
42 76 256
42 77 156
42 78 35
42 79 27
42 80 31
42 81 32
42 82 92
42 83 85
42 84 215
42 85 80
42 86 173
42 87 74
42 88 48
42 89 20
42 90 111
43 44 252
43 45 33
43 46 139
43 47 42
43 48 175
43 49 195
43 50 256
43 51 40
43 52 2
43 53 255
43 54 89
43 55 152
43 56 246
43 57 40
43 58 215
43 59 152
43 60 243
43 61 20
43 62 230
43 63 213
43 64 118
43 65 225
43 66 111
43 67 240
43 68 230
43 69 103
43 70 258
43 71 99
43 72 198
43 73 202
43 74 188
43 75 251
43 76 2
43 77 146
43 78 122
43 79 119
43 80 90
43 81 209
43 82 22
43 83 125
43 84 35
43 85 190
43 86 43
43 87 93
43 88 67
43 89 148
43 90 240
44 45 252
44 46 141
44 47 11
44 48 243
44 49 256
44 50 38
44 51 28
44 52 205
44 53 254
44 54 175
44 55 171
44 56 63
44 57 8
44 58 22
44 59 181
44 60 251
44 61 44
44 62 260
44 63 82
44 64 4
44 65 16
44 66 46
44 67 10
44 68 173
44 69 66
44 70 91
44 71 21
44 72 63
44 73 59
44 74 108
44 75 263
44 76 40
44 77 266
44 78 144
44 79 206
44 80 65
44 81 180
44 82 256
44 83 192
44 84 138
44 85 73
44 86 249
44 87 128
44 88 179
44 89 68
44 90 232
45 46 265
45 47 167
45 48 52
45 49 179
45 50 157
45 51 268
45 52 261
45 53 267
45 54 7
45 55 180
45 56 16
45 57 136
45 58 67
45 59 169
45 60 187
45 61 33
45 62 138
45 63 181
45 64 77
45 65 94
45 66 96
45 67 223
45 68 161
45 69 259
45 70 242
45 71 214
45 72 257
45 73 204
45 74 238
45 75 255
45 76 165
45 77 133
45 78 122
45 79 42
45 80 14
45 81 139
45 82 77
45 83 109
45 84 102
45 85 259
45 86 149
45 87 63
45 88 182
45 89 70
45 90 99
46 47 50
46 48 128
46 49 75
46 50 99
46 51 144
46 52 166
46 53 209
46 54 161
46 55 94
46 56 241
46 57 128
46 58 162
46 59 234
46 60 194
46 61 50
46 62 223
46 63 196
46 64 64
46 65 73
46 66 103
46 67 131
46 68 116
46 69 138
46 70 16
46 71 266
46 72 43
46 73 122
46 74 230
46 75 189
46 76 28
46 77 11
46 78 149
46 79 54
46 80 80
46 81 235
46 82 68
46 83 53
46 84 1
46 85 80
46 86 101
46 87 117
46 88 7
46 89 123
46 90 57
47 48 63
47 49 17
47 50 30
47 51 214
47 52 212
47 53 225
47 54 136
47 55 139
47 56 0
47 57 107
47 58 160
47 59 86
47 60 214
47 61 246
47 62 95
47 63 241
47 64 180
47 65 267
47 66 153
47 67 68
47 68 117
47 69 85
47 70 150
47 71 249
47 72 31
47 73 107
47 74 146
47 75 135
47 76 235
47 77 186
47 78 78
47 79 253
47 80 234
47 81 177
47 82 116
47 83 7
47 84 129
47 85 75
47 86 162
47 87 161
47 88 202
47 89 15
47 90 96
48 49 92
48 50 86
48 51 62
48 52 6
48 53 197
48 54 105
48 55 74
48 56 234
48 57 63
48 58 10
48 59 250
48 60 51
48 61 18
48 62 94
48 63 199
48 64 210
48 65 165
48 66 38
48 67 181
48 68 209
48 69 173
48 70 121
48 71 108
48 72 237
48 73 219
48 74 161
48 75 50
48 76 164
48 77 257
48 78 128
48 79 144
48 80 96
48 81 194
48 82 6
48 83 127
48 84 135
48 85 30
48 86 104
48 87 144
48 88 177
48 89 242
48 90 102
49 50 165
49 51 91
49 52 242
49 53 37
49 54 30
49 55 32
49 56 240
49 57 227
49 58 146
49 59 161
49 60 267
49 61 218
49 62 68
49 63 56
49 64 82
49 65 202
49 66 0
49 67 132
49 68 44
49 69 246
49 70 222
49 71 154
49 72 239
49 73 148
49 74 199
49 75 212
49 76 21
49 77 247
49 78 233
49 79 104
49 80 5
49 81 222
49 82 89
49 83 112
49 84 113
49 85 201
49 86 269
49 87 77
49 88 13
49 89 0
49 90 112
50 51 161
50 52 131
50 53 189
50 54 118
50 55 78
50 56 246
50 57 158
50 58 259
50 59 217
50 60 61
50 61 50
50 62 46
50 63 71
50 64 149
50 65 263
50 66 229
50 67 18
50 68 255
50 69 33
50 70 61
50 71 75
50 72 180
50 73 260
50 74 54
50 75 148
50 76 10
50 77 31
50 78 54
50 79 146
50 80 143
50 81 122
50 82 122
50 83 200
50 84 220
50 85 209
50 86 72
50 87 258
50 88 158
50 89 148
50 90 76
51 52 51
51 53 199
51 54 49
51 55 249
51 56 205
51 57 238
51 58 262
51 59 28
51 60 125
51 61 63
51 62 203
51 63 132
51 64 50
51 65 182
51 66 166
51 67 22
51 68 97
51 69 69
51 70 67
51 71 134
51 72 37
51 73 252
51 74 46
51 75 237
51 76 231
51 77 85
51 78 189
51 79 177
51 80 197
51 81 74
51 82 166
51 83 94
51 84 41
51 85 257
51 86 169
51 87 60
51 88 34
51 89 175
51 90 66
52 53 118
52 54 171
52 55 129
52 56 79
52 57 125
52 58 33
52 59 57
52 60 108
52 61 121
52 62 42
52 63 63
52 64 164
52 65 25
52 66 116
52 67 233
52 68 193
52 69 221
52 70 88
52 71 73
52 72 206
52 73 4
52 74 232
52 75 173
52 76 78
52 77 199
52 78 213
52 79 84
52 80 41
52 81 155
52 82 89
52 83 22
52 84 166
52 85 174
52 86 229
52 87 99
52 88 121
52 89 90
52 90 112
53 54 153
53 55 158
53 56 85
53 57 38
53 58 229
53 59 77
53 60 33
53 61 105
53 62 50
53 63 173
53 64 113
53 65 142
53 66 261
53 67 256
53 68 181
53 69 160
53 70 71
53 71 199
53 72 113
53 73 60
53 74 166
53 75 169
53 76 215
53 77 14
53 78 40
53 79 96
53 80 62
53 81 6
53 82 8
53 83 235
53 84 201
53 85 127
53 86 187
53 87 125
53 88 124
53 89 64
53 90 78
54 55 137
54 56 83
54 57 20
54 58 164
54 59 30
54 60 89
54 61 198
54 62 150
54 63 208
54 64 125
54 65 262
54 66 162
54 67 90
54 68 41
54 69 205
54 70 228
54 71 50
54 72 203
54 73 70
54 74 232
54 75 29
54 76 157
54 77 220
54 78 65
54 79 269
54 80 188
54 81 73
54 82 205
54 83 51
54 84 233
54 85 8
54 86 55
54 87 183
54 88 269
54 89 109
54 90 267
55 56 75
55 57 113
55 58 143
55 59 114
55 60 85
55 61 64
55 62 131
55 63 141
55 64 200
55 65 192
55 66 68
55 67 115
55 68 70
55 69 263
55 70 106
55 71 262
55 72 91
55 73 265
55 74 90
55 75 236
55 76 115
55 77 4
55 78 83
55 79 194
55 80 8
55 81 30
55 82 188
55 83 115
55 84 171
55 85 91
55 86 143
55 87 1
55 88 47
55 89 67
55 90 112
56 57 164
56 58 16
56 59 242
56 60 122
56 61 50
56 62 202
56 63 198
56 64 13
56 65 191
56 66 225
56 67 153
56 68 135
56 69 119
56 70 155
56 71 129
56 72 102
56 73 24
56 74 61
56 75 92
56 76 57
56 77 46
56 78 237
56 79 90
56 80 3
56 81 82
56 82 233
56 83 180
56 84 66
56 85 50
56 86 132
56 87 254
56 88 214
56 89 103
56 90 47
57 58 208
57 59 188
57 60 69
57 61 118
57 62 6
57 63 131
57 64 180
57 65 173
57 66 85
57 67 56
57 68 172
57 69 208
57 70 44
57 71 190
57 72 130
57 73 233
57 74 15
57 75 196
57 76 54
57 77 156
57 78 14
57 79 136
57 80 32
57 81 27
57 82 4
57 83 29
57 84 257
57 85 229
57 86 215
57 87 93
57 88 131
57 89 65
57 90 172
58 59 201
58 60 190
58 61 94
58 62 239
58 63 70
58 64 140
58 65 100
58 66 250
58 67 73
58 68 84
58 69 48
58 70 210
58 71 14
58 72 264
58 73 235
58 74 64
58 75 2
58 76 223
58 77 81
58 78 235
58 79 214
58 80 17
58 81 106
58 82 235
58 83 49
58 84 61
58 85 224
58 86 125
58 87 144
58 88 11
58 89 115
58 90 197
59 60 169
59 61 233
59 62 32
59 63 18
59 64 204
59 65 156
59 66 106
59 67 147
59 68 204
59 69 93
59 70 269
59 71 127
59 72 158
59 73 248
59 74 3
59 75 78
59 76 213
59 77 256
59 78 67
59 79 69
59 80 143
59 81 232
59 82 151
59 83 184
59 84 161
59 85 148
59 86 112
59 87 247
59 88 202
59 89 99
59 90 50
60 61 61
60 62 268
60 63 212
60 64 167
60 65 114
60 66 122
60 67 17
60 68 175
60 69 34
60 70 81
60 71 20
60 72 11
60 73 70
60 74 129
60 75 104
60 76 84
60 77 195
60 78 161
60 79 52
60 80 114
60 81 74
60 82 127
60 83 44
60 84 203
60 85 89
60 86 79
60 87 228
60 88 1
60 89 88
60 90 107
61 62 65
61 63 154
61 64 35
61 65 27
61 66 50
61 67 135
61 68 125
61 69 38
61 70 151
61 71 73
61 72 132
61 73 82
61 74 16
61 75 15
61 76 79
61 77 226
61 78 259
61 79 261
61 80 170
61 81 217
61 82 105
61 83 189
61 84 198
61 85 191
61 86 99
61 87 93
61 88 226
61 89 198
61 90 155
62 63 112
62 64 88
62 65 123
62 66 72
62 67 186
62 68 23
62 69 144
62 70 103
62 71 70
62 72 33
62 73 104
62 74 91
62 75 3
62 76 165
62 77 200
62 78 161
62 79 186
62 80 58
62 81 51
62 82 64
62 83 30
62 84 179
62 85 26
62 86 226
62 87 183
62 88 218
62 89 17
62 90 106
63 64 176
63 65 91
63 66 8
63 67 238
63 68 203
63 69 159
63 70 218
63 71 139
63 72 229
63 73 190
63 74 121
63 75 78
63 76 229
63 77 29
63 78 58
63 79 79
63 80 29
63 81 85
63 82 198
63 83 101
63 84 26
63 85 211
63 86 98
63 87 105
63 88 86
63 89 174
63 90 230
64 65 105
64 66 133
64 67 59
64 68 48
64 69 129
64 70 150
64 71 267
64 72 173
64 73 250
64 74 96
64 75 245
64 76 97
64 77 195
64 78 166
64 79 264
64 80 6
64 81 92
64 82 79
64 83 65
64 84 197
64 85 36
64 86 167
64 87 214
64 88 180
64 89 177
64 90 101
65 66 163
65 67 59
65 68 229
65 69 69
65 70 121
65 71 135
65 72 235
65 73 145
65 74 95
65 75 269
65 76 8
65 77 152
65 78 269
65 79 97
65 80 150
65 81 144
65 82 86
65 83 79
65 84 163
65 85 213
65 86 143
65 87 183
65 88 72
65 89 147
65 90 67
66 67 82
66 68 125
66 69 220
66 70 174
66 71 216
66 72 215
66 73 191
66 74 149
66 75 153
66 76 166
66 77 213
66 78 235
66 79 31
66 80 175
66 81 78
66 82 223
66 83 222
66 84 153
66 85 29
66 86 37
66 87 80
66 88 205
66 89 135
66 90 138
67 68 62
67 69 8
67 70 222
67 71 101
67 72 266
67 73 134
67 74 199
67 75 101
67 76 246
67 77 229
67 78 149
67 79 6
67 80 192
67 81 223
67 82 54
67 83 26
67 84 79
67 85 56
67 86 121
67 87 263
67 88 238
67 89 158
67 90 30
68 69 193
68 70 82
68 71 120
68 72 175
68 73 175
68 74 253
68 75 236
68 76 61
68 77 187
68 78 263
68 79 23
68 80 139
68 81 209
68 82 28
68 83 155
68 84 81
68 85 47
68 86 225
68 87 122
68 88 161
68 89 196
68 90 58
69 70 5
69 71 249
69 72 132
69 73 82
69 74 93
69 75 118
69 76 254
69 77 11
69 78 146
69 79 164
69 80 263
69 81 77
69 82 5
69 83 141
69 84 84
69 85 174
69 86 106
69 87 137
69 88 0
69 89 249
69 90 39
70 71 167
70 72 142
70 73 171
70 74 101
70 75 61
70 76 115
70 77 173
70 78 133
70 79 176
70 80 21
70 81 53
70 82 172
70 83 232
70 84 132
70 85 54
70 86 225
70 87 167
70 88 138
70 89 178
70 90 184
71 72 254
71 73 53
71 74 203
71 75 267
71 76 255
71 77 193
71 78 229
71 79 31
71 80 80
71 81 58
71 82 139
71 83 168
71 84 161
71 85 251
71 86 233
71 87 77
71 88 220
71 89 30
71 90 258
72 73 103
72 74 195
72 75 247
72 76 193
72 77 207
72 78 189
72 79 218
72 80 111
72 81 131
72 82 39
72 83 94
72 84 247
72 85 67
72 86 244
72 87 220
72 88 197
72 89 235
72 90 199
73 74 115
73 75 74
73 76 172
73 77 129
73 78 151
73 79 122
73 80 38
73 81 147
73 82 247
73 83 146
73 84 167
73 85 123
73 86 91
73 87 79
73 88 220
73 89 44
73 90 64
74 75 37
74 76 213
74 77 166
74 78 243
74 79 103
74 80 158
74 81 4
74 82 50
74 83 135
74 84 146
74 85 95
74 86 139
74 87 245
74 88 231
74 89 254
74 90 2
75 76 116
75 77 242
75 78 138
75 79 126
75 80 219
75 81 75
75 82 207
75 83 109
75 84 133
75 85 213
75 86 52
75 87 248
75 88 255
75 89 187
75 90 163
76 77 164
76 78 51
76 79 18
76 80 208
76 81 32
76 82 180
76 83 42
76 84 138
76 85 35
76 86 214
76 87 41
76 88 250
76 89 241
76 90 31
77 78 93
77 79 180
77 80 190
77 81 82
77 82 193
77 83 214
77 84 123
77 85 88
77 86 180
77 87 156
77 88 44
77 89 261
77 90 155
78 79 152
78 80 23
78 81 229
78 82 186
78 83 265
78 84 19
78 85 215
78 86 19
78 87 168
78 88 31
78 89 148
78 90 248
79 80 45
79 81 23
79 82 30
79 83 70
79 84 2
79 85 142
79 86 153
79 87 252
79 88 94
79 89 205
79 90 40
80 81 7
80 82 10
80 83 19
80 84 3
80 85 243
80 86 255
80 87 180
80 88 25
80 89 138
80 90 114
81 82 48
81 83 243
81 84 152
81 85 77
81 86 45
81 87 244
81 88 103
81 89 13
81 90 43
82 83 268
82 84 202
82 85 64
82 86 165
82 87 45
82 88 250
82 89 239
82 90 204
83 84 92
83 85 7
83 86 89
83 87 188
83 88 199
83 89 2
83 90 269
84 85 152
84 86 101
84 87 250
84 88 65
84 89 219
84 90 117
85 86 123
85 87 119
85 88 70
85 89 129
85 90 252
86 87 144
86 88 146
86 89 264
86 90 99
87 88 264
87 89 96
87 90 5
88 89 63
88 90 199
89 90 138
